32	0

0	1	2
8	1	3
10	1	4
8	1	5
7	1	6
7	1	7
6	2	8	9
1	1	10
8	1	10
6	1	11
5	1	12
3	1	13
3	1	14
3	1	15
2	1	16
5	1	17
10	1	18
1	1	19
1	1	20
10	1	21
3	1	22
1	1	23
1	1	24
1	1	25
7	1	26
6	1	27
1	1	28
1	1	29
1	1	30
3	1	31
1	1	32
0	0
